18
water hexamer from CREST docs example 3
 O    -1.469470     0.057971     1.425525
 H    -0.584285     0.519331     1.484152
 H    -1.949531     0.297378     2.218248
 O    -0.414388    -2.005083    -0.137355
 H    -0.827334    -1.527314     0.598606
 H    -0.829507    -1.642295    -0.927593
 O    -1.740922     0.293387    -1.291566
 H    -2.429374     0.885495    -1.595601
 H    -1.784260     0.283934    -0.315678
 O     2.037846    -0.900550    -0.123510
 H     2.719638    -1.557770    -0.261948
 H     1.180681    -1.385350    -0.122605
 O     0.833144     1.402993    -1.296134
 H     1.432120     0.648938    -1.204997
 H    -0.044502     1.022356    -1.465271
 O     0.879327     1.214234     1.389828
 H     0.853406     1.590056     0.483434
 H     1.511729     0.488538     1.308001
